&BANDS
  prefix = 'sro'
  filband = 'sro_bands.dat'
/

