&CONTROL
   calculation      = 'nscf'
   restart_mode     = 'from_scratch'
   prefix           = 'sro'
   disk_io          = 'low'
   pseudo_dir       = '../pseudo/'
   verbosity        = 'high'
/
&SYSTEM
   ibrav            = 0
   nbnd             = 34
   ecutwfc          = 70
   ecutrho          = 840
   ntyp             = 3
   nat              = 7
   nosym            = .true.
/
&ELECTRONS
   conv_thr         = 1e-12
   diagonalization  = 'cg'
   diago_full_acc   = .true.
   diago_cg_maxiter = 100
/

ATOMIC_SPECIES
Sr 87.62 Sr.pbe-spn-kjpaw_psl.1.0.0.UPF
Ru 101.07 Ru.pbe-spn-kjpaw_psl.1.0.0.UPF
O 15.999 O.pbe-n-kjpaw_psl.1.0.0.UPF

CELL_PARAMETERS angstrom
-1.93150000000000 1.93150000000000 6.36200000000000
1.93150000000000 -1.93150000000000 6.36200000000000
1.93150000000000 1.93150000000000 -6.36200000000000

ATOMIC_POSITIONS angstrom
Sr 0.0000000000 0.0000000000 4.4839376000 
Sr 0.0000000000 0.0000000000 8.2400624000 
Ru 0.0000000000 0.0000000000 0.0000000000 
O 1.9315000000 0.0000000000 0.0000000000 
O 0.0000000000 1.9315000000 0.0000000000 
O 0.0000000000 0.0000000000 2.0803740000 
O 0.0000000000 0.0000000000 10.6436260000 

K_POINTS crystal
1000
  0.00000000  0.00000000  0.00000000  1.000000e-03
  0.00000000  0.00000000  0.10000000  1.000000e-03
  0.00000000  0.00000000  0.20000000  1.000000e-03
  0.00000000  0.00000000  0.30000000  1.000000e-03
  0.00000000  0.00000000  0.40000000  1.000000e-03
  0.00000000  0.00000000  0.50000000  1.000000e-03
  0.00000000  0.00000000  0.60000000  1.000000e-03
  0.00000000  0.00000000  0.70000000  1.000000e-03
  0.00000000  0.00000000  0.80000000  1.000000e-03
  0.00000000  0.00000000  0.90000000  1.000000e-03
  0.00000000  0.10000000  0.00000000  1.000000e-03
  0.00000000  0.10000000  0.10000000  1.000000e-03
  0.00000000  0.10000000  0.20000000  1.000000e-03
  0.00000000  0.10000000  0.30000000  1.000000e-03
  0.00000000  0.10000000  0.40000000  1.000000e-03
  0.00000000  0.10000000  0.50000000  1.000000e-03
  0.00000000  0.10000000  0.60000000  1.000000e-03
  0.00000000  0.10000000  0.70000000  1.000000e-03
  0.00000000  0.10000000  0.80000000  1.000000e-03
  0.00000000  0.10000000  0.90000000  1.000000e-03
  0.00000000  0.20000000  0.00000000  1.000000e-03
  0.00000000  0.20000000  0.10000000  1.000000e-03
  0.00000000  0.20000000  0.20000000  1.000000e-03
  0.00000000  0.20000000  0.30000000  1.000000e-03
  0.00000000  0.20000000  0.40000000  1.000000e-03
  0.00000000  0.20000000  0.50000000  1.000000e-03
  0.00000000  0.20000000  0.60000000  1.000000e-03
  0.00000000  0.20000000  0.70000000  1.000000e-03
  0.00000000  0.20000000  0.80000000  1.000000e-03
  0.00000000  0.20000000  0.90000000  1.000000e-03
  0.00000000  0.30000000  0.00000000  1.000000e-03
  0.00000000  0.30000000  0.10000000  1.000000e-03
  0.00000000  0.30000000  0.20000000  1.000000e-03
  0.00000000  0.30000000  0.30000000  1.000000e-03
  0.00000000  0.30000000  0.40000000  1.000000e-03
  0.00000000  0.30000000  0.50000000  1.000000e-03
  0.00000000  0.30000000  0.60000000  1.000000e-03
  0.00000000  0.30000000  0.70000000  1.000000e-03
  0.00000000  0.30000000  0.80000000  1.000000e-03
  0.00000000  0.30000000  0.90000000  1.000000e-03
  0.00000000  0.40000000  0.00000000  1.000000e-03
  0.00000000  0.40000000  0.10000000  1.000000e-03
  0.00000000  0.40000000  0.20000000  1.000000e-03
  0.00000000  0.40000000  0.30000000  1.000000e-03
  0.00000000  0.40000000  0.40000000  1.000000e-03
  0.00000000  0.40000000  0.50000000  1.000000e-03
  0.00000000  0.40000000  0.60000000  1.000000e-03
  0.00000000  0.40000000  0.70000000  1.000000e-03
  0.00000000  0.40000000  0.80000000  1.000000e-03
  0.00000000  0.40000000  0.90000000  1.000000e-03
  0.00000000  0.50000000  0.00000000  1.000000e-03
  0.00000000  0.50000000  0.10000000  1.000000e-03
  0.00000000  0.50000000  0.20000000  1.000000e-03
  0.00000000  0.50000000  0.30000000  1.000000e-03
  0.00000000  0.50000000  0.40000000  1.000000e-03
  0.00000000  0.50000000  0.50000000  1.000000e-03
  0.00000000  0.50000000  0.60000000  1.000000e-03
  0.00000000  0.50000000  0.70000000  1.000000e-03
  0.00000000  0.50000000  0.80000000  1.000000e-03
  0.00000000  0.50000000  0.90000000  1.000000e-03
  0.00000000  0.60000000  0.00000000  1.000000e-03
  0.00000000  0.60000000  0.10000000  1.000000e-03
  0.00000000  0.60000000  0.20000000  1.000000e-03
  0.00000000  0.60000000  0.30000000  1.000000e-03
  0.00000000  0.60000000  0.40000000  1.000000e-03
  0.00000000  0.60000000  0.50000000  1.000000e-03
  0.00000000  0.60000000  0.60000000  1.000000e-03
  0.00000000  0.60000000  0.70000000  1.000000e-03
  0.00000000  0.60000000  0.80000000  1.000000e-03
  0.00000000  0.60000000  0.90000000  1.000000e-03
  0.00000000  0.70000000  0.00000000  1.000000e-03
  0.00000000  0.70000000  0.10000000  1.000000e-03
  0.00000000  0.70000000  0.20000000  1.000000e-03
  0.00000000  0.70000000  0.30000000  1.000000e-03
  0.00000000  0.70000000  0.40000000  1.000000e-03
  0.00000000  0.70000000  0.50000000  1.000000e-03
  0.00000000  0.70000000  0.60000000  1.000000e-03
  0.00000000  0.70000000  0.70000000  1.000000e-03
  0.00000000  0.70000000  0.80000000  1.000000e-03
  0.00000000  0.70000000  0.90000000  1.000000e-03
  0.00000000  0.80000000  0.00000000  1.000000e-03
  0.00000000  0.80000000  0.10000000  1.000000e-03
  0.00000000  0.80000000  0.20000000  1.000000e-03
  0.00000000  0.80000000  0.30000000  1.000000e-03
  0.00000000  0.80000000  0.40000000  1.000000e-03
  0.00000000  0.80000000  0.50000000  1.000000e-03
  0.00000000  0.80000000  0.60000000  1.000000e-03
  0.00000000  0.80000000  0.70000000  1.000000e-03
  0.00000000  0.80000000  0.80000000  1.000000e-03
  0.00000000  0.80000000  0.90000000  1.000000e-03
  0.00000000  0.90000000  0.00000000  1.000000e-03
  0.00000000  0.90000000  0.10000000  1.000000e-03
  0.00000000  0.90000000  0.20000000  1.000000e-03
  0.00000000  0.90000000  0.30000000  1.000000e-03
  0.00000000  0.90000000  0.40000000  1.000000e-03
  0.00000000  0.90000000  0.50000000  1.000000e-03
  0.00000000  0.90000000  0.60000000  1.000000e-03
  0.00000000  0.90000000  0.70000000  1.000000e-03
  0.00000000  0.90000000  0.80000000  1.000000e-03
  0.00000000  0.90000000  0.90000000  1.000000e-03
  0.10000000  0.00000000  0.00000000  1.000000e-03
  0.10000000  0.00000000  0.10000000  1.000000e-03
  0.10000000  0.00000000  0.20000000  1.000000e-03
  0.10000000  0.00000000  0.30000000  1.000000e-03
  0.10000000  0.00000000  0.40000000  1.000000e-03
  0.10000000  0.00000000  0.50000000  1.000000e-03
  0.10000000  0.00000000  0.60000000  1.000000e-03
  0.10000000  0.00000000  0.70000000  1.000000e-03
  0.10000000  0.00000000  0.80000000  1.000000e-03
  0.10000000  0.00000000  0.90000000  1.000000e-03
  0.10000000  0.10000000  0.00000000  1.000000e-03
  0.10000000  0.10000000  0.10000000  1.000000e-03
  0.10000000  0.10000000  0.20000000  1.000000e-03
  0.10000000  0.10000000  0.30000000  1.000000e-03
  0.10000000  0.10000000  0.40000000  1.000000e-03
  0.10000000  0.10000000  0.50000000  1.000000e-03
  0.10000000  0.10000000  0.60000000  1.000000e-03
  0.10000000  0.10000000  0.70000000  1.000000e-03
  0.10000000  0.10000000  0.80000000  1.000000e-03
  0.10000000  0.10000000  0.90000000  1.000000e-03
  0.10000000  0.20000000  0.00000000  1.000000e-03
  0.10000000  0.20000000  0.10000000  1.000000e-03
  0.10000000  0.20000000  0.20000000  1.000000e-03
  0.10000000  0.20000000  0.30000000  1.000000e-03
  0.10000000  0.20000000  0.40000000  1.000000e-03
  0.10000000  0.20000000  0.50000000  1.000000e-03
  0.10000000  0.20000000  0.60000000  1.000000e-03
  0.10000000  0.20000000  0.70000000  1.000000e-03
  0.10000000  0.20000000  0.80000000  1.000000e-03
  0.10000000  0.20000000  0.90000000  1.000000e-03
  0.10000000  0.30000000  0.00000000  1.000000e-03
  0.10000000  0.30000000  0.10000000  1.000000e-03
  0.10000000  0.30000000  0.20000000  1.000000e-03
  0.10000000  0.30000000  0.30000000  1.000000e-03
  0.10000000  0.30000000  0.40000000  1.000000e-03
  0.10000000  0.30000000  0.50000000  1.000000e-03
  0.10000000  0.30000000  0.60000000  1.000000e-03
  0.10000000  0.30000000  0.70000000  1.000000e-03
  0.10000000  0.30000000  0.80000000  1.000000e-03
  0.10000000  0.30000000  0.90000000  1.000000e-03
  0.10000000  0.40000000  0.00000000  1.000000e-03
  0.10000000  0.40000000  0.10000000  1.000000e-03
  0.10000000  0.40000000  0.20000000  1.000000e-03
  0.10000000  0.40000000  0.30000000  1.000000e-03
  0.10000000  0.40000000  0.40000000  1.000000e-03
  0.10000000  0.40000000  0.50000000  1.000000e-03
  0.10000000  0.40000000  0.60000000  1.000000e-03
  0.10000000  0.40000000  0.70000000  1.000000e-03
  0.10000000  0.40000000  0.80000000  1.000000e-03
  0.10000000  0.40000000  0.90000000  1.000000e-03
  0.10000000  0.50000000  0.00000000  1.000000e-03
  0.10000000  0.50000000  0.10000000  1.000000e-03
  0.10000000  0.50000000  0.20000000  1.000000e-03
  0.10000000  0.50000000  0.30000000  1.000000e-03
  0.10000000  0.50000000  0.40000000  1.000000e-03
  0.10000000  0.50000000  0.50000000  1.000000e-03
  0.10000000  0.50000000  0.60000000  1.000000e-03
  0.10000000  0.50000000  0.70000000  1.000000e-03
  0.10000000  0.50000000  0.80000000  1.000000e-03
  0.10000000  0.50000000  0.90000000  1.000000e-03
  0.10000000  0.60000000  0.00000000  1.000000e-03
  0.10000000  0.60000000  0.10000000  1.000000e-03
  0.10000000  0.60000000  0.20000000  1.000000e-03
  0.10000000  0.60000000  0.30000000  1.000000e-03
  0.10000000  0.60000000  0.40000000  1.000000e-03
  0.10000000  0.60000000  0.50000000  1.000000e-03
  0.10000000  0.60000000  0.60000000  1.000000e-03
  0.10000000  0.60000000  0.70000000  1.000000e-03
  0.10000000  0.60000000  0.80000000  1.000000e-03
  0.10000000  0.60000000  0.90000000  1.000000e-03
  0.10000000  0.70000000  0.00000000  1.000000e-03
  0.10000000  0.70000000  0.10000000  1.000000e-03
  0.10000000  0.70000000  0.20000000  1.000000e-03
  0.10000000  0.70000000  0.30000000  1.000000e-03
  0.10000000  0.70000000  0.40000000  1.000000e-03
  0.10000000  0.70000000  0.50000000  1.000000e-03
  0.10000000  0.70000000  0.60000000  1.000000e-03
  0.10000000  0.70000000  0.70000000  1.000000e-03
  0.10000000  0.70000000  0.80000000  1.000000e-03
  0.10000000  0.70000000  0.90000000  1.000000e-03
  0.10000000  0.80000000  0.00000000  1.000000e-03
  0.10000000  0.80000000  0.10000000  1.000000e-03
  0.10000000  0.80000000  0.20000000  1.000000e-03
  0.10000000  0.80000000  0.30000000  1.000000e-03
  0.10000000  0.80000000  0.40000000  1.000000e-03
  0.10000000  0.80000000  0.50000000  1.000000e-03
  0.10000000  0.80000000  0.60000000  1.000000e-03
  0.10000000  0.80000000  0.70000000  1.000000e-03
  0.10000000  0.80000000  0.80000000  1.000000e-03
  0.10000000  0.80000000  0.90000000  1.000000e-03
  0.10000000  0.90000000  0.00000000  1.000000e-03
  0.10000000  0.90000000  0.10000000  1.000000e-03
  0.10000000  0.90000000  0.20000000  1.000000e-03
  0.10000000  0.90000000  0.30000000  1.000000e-03
  0.10000000  0.90000000  0.40000000  1.000000e-03
  0.10000000  0.90000000  0.50000000  1.000000e-03
  0.10000000  0.90000000  0.60000000  1.000000e-03
  0.10000000  0.90000000  0.70000000  1.000000e-03
  0.10000000  0.90000000  0.80000000  1.000000e-03
  0.10000000  0.90000000  0.90000000  1.000000e-03
  0.20000000  0.00000000  0.00000000  1.000000e-03
  0.20000000  0.00000000  0.10000000  1.000000e-03
  0.20000000  0.00000000  0.20000000  1.000000e-03
  0.20000000  0.00000000  0.30000000  1.000000e-03
  0.20000000  0.00000000  0.40000000  1.000000e-03
  0.20000000  0.00000000  0.50000000  1.000000e-03
  0.20000000  0.00000000  0.60000000  1.000000e-03
  0.20000000  0.00000000  0.70000000  1.000000e-03
  0.20000000  0.00000000  0.80000000  1.000000e-03
  0.20000000  0.00000000  0.90000000  1.000000e-03
  0.20000000  0.10000000  0.00000000  1.000000e-03
  0.20000000  0.10000000  0.10000000  1.000000e-03
  0.20000000  0.10000000  0.20000000  1.000000e-03
  0.20000000  0.10000000  0.30000000  1.000000e-03
  0.20000000  0.10000000  0.40000000  1.000000e-03
  0.20000000  0.10000000  0.50000000  1.000000e-03
  0.20000000  0.10000000  0.60000000  1.000000e-03
  0.20000000  0.10000000  0.70000000  1.000000e-03
  0.20000000  0.10000000  0.80000000  1.000000e-03
  0.20000000  0.10000000  0.90000000  1.000000e-03
  0.20000000  0.20000000  0.00000000  1.000000e-03
  0.20000000  0.20000000  0.10000000  1.000000e-03
  0.20000000  0.20000000  0.20000000  1.000000e-03
  0.20000000  0.20000000  0.30000000  1.000000e-03
  0.20000000  0.20000000  0.40000000  1.000000e-03
  0.20000000  0.20000000  0.50000000  1.000000e-03
  0.20000000  0.20000000  0.60000000  1.000000e-03
  0.20000000  0.20000000  0.70000000  1.000000e-03
  0.20000000  0.20000000  0.80000000  1.000000e-03
  0.20000000  0.20000000  0.90000000  1.000000e-03
  0.20000000  0.30000000  0.00000000  1.000000e-03
  0.20000000  0.30000000  0.10000000  1.000000e-03
  0.20000000  0.30000000  0.20000000  1.000000e-03
  0.20000000  0.30000000  0.30000000  1.000000e-03
  0.20000000  0.30000000  0.40000000  1.000000e-03
  0.20000000  0.30000000  0.50000000  1.000000e-03
  0.20000000  0.30000000  0.60000000  1.000000e-03
  0.20000000  0.30000000  0.70000000  1.000000e-03
  0.20000000  0.30000000  0.80000000  1.000000e-03
  0.20000000  0.30000000  0.90000000  1.000000e-03
  0.20000000  0.40000000  0.00000000  1.000000e-03
  0.20000000  0.40000000  0.10000000  1.000000e-03
  0.20000000  0.40000000  0.20000000  1.000000e-03
  0.20000000  0.40000000  0.30000000  1.000000e-03
  0.20000000  0.40000000  0.40000000  1.000000e-03
  0.20000000  0.40000000  0.50000000  1.000000e-03
  0.20000000  0.40000000  0.60000000  1.000000e-03
  0.20000000  0.40000000  0.70000000  1.000000e-03
  0.20000000  0.40000000  0.80000000  1.000000e-03
  0.20000000  0.40000000  0.90000000  1.000000e-03
  0.20000000  0.50000000  0.00000000  1.000000e-03
  0.20000000  0.50000000  0.10000000  1.000000e-03
  0.20000000  0.50000000  0.20000000  1.000000e-03
  0.20000000  0.50000000  0.30000000  1.000000e-03
  0.20000000  0.50000000  0.40000000  1.000000e-03
  0.20000000  0.50000000  0.50000000  1.000000e-03
  0.20000000  0.50000000  0.60000000  1.000000e-03
  0.20000000  0.50000000  0.70000000  1.000000e-03
  0.20000000  0.50000000  0.80000000  1.000000e-03
  0.20000000  0.50000000  0.90000000  1.000000e-03
  0.20000000  0.60000000  0.00000000  1.000000e-03
  0.20000000  0.60000000  0.10000000  1.000000e-03
  0.20000000  0.60000000  0.20000000  1.000000e-03
  0.20000000  0.60000000  0.30000000  1.000000e-03
  0.20000000  0.60000000  0.40000000  1.000000e-03
  0.20000000  0.60000000  0.50000000  1.000000e-03
  0.20000000  0.60000000  0.60000000  1.000000e-03
  0.20000000  0.60000000  0.70000000  1.000000e-03
  0.20000000  0.60000000  0.80000000  1.000000e-03
  0.20000000  0.60000000  0.90000000  1.000000e-03
  0.20000000  0.70000000  0.00000000  1.000000e-03
  0.20000000  0.70000000  0.10000000  1.000000e-03
  0.20000000  0.70000000  0.20000000  1.000000e-03
  0.20000000  0.70000000  0.30000000  1.000000e-03
  0.20000000  0.70000000  0.40000000  1.000000e-03
  0.20000000  0.70000000  0.50000000  1.000000e-03
  0.20000000  0.70000000  0.60000000  1.000000e-03
  0.20000000  0.70000000  0.70000000  1.000000e-03
  0.20000000  0.70000000  0.80000000  1.000000e-03
  0.20000000  0.70000000  0.90000000  1.000000e-03
  0.20000000  0.80000000  0.00000000  1.000000e-03
  0.20000000  0.80000000  0.10000000  1.000000e-03
  0.20000000  0.80000000  0.20000000  1.000000e-03
  0.20000000  0.80000000  0.30000000  1.000000e-03
  0.20000000  0.80000000  0.40000000  1.000000e-03
  0.20000000  0.80000000  0.50000000  1.000000e-03
  0.20000000  0.80000000  0.60000000  1.000000e-03
  0.20000000  0.80000000  0.70000000  1.000000e-03
  0.20000000  0.80000000  0.80000000  1.000000e-03
  0.20000000  0.80000000  0.90000000  1.000000e-03
  0.20000000  0.90000000  0.00000000  1.000000e-03
  0.20000000  0.90000000  0.10000000  1.000000e-03
  0.20000000  0.90000000  0.20000000  1.000000e-03
  0.20000000  0.90000000  0.30000000  1.000000e-03
  0.20000000  0.90000000  0.40000000  1.000000e-03
  0.20000000  0.90000000  0.50000000  1.000000e-03
  0.20000000  0.90000000  0.60000000  1.000000e-03
  0.20000000  0.90000000  0.70000000  1.000000e-03
  0.20000000  0.90000000  0.80000000  1.000000e-03
  0.20000000  0.90000000  0.90000000  1.000000e-03
  0.30000000  0.00000000  0.00000000  1.000000e-03
  0.30000000  0.00000000  0.10000000  1.000000e-03
  0.30000000  0.00000000  0.20000000  1.000000e-03
  0.30000000  0.00000000  0.30000000  1.000000e-03
  0.30000000  0.00000000  0.40000000  1.000000e-03
  0.30000000  0.00000000  0.50000000  1.000000e-03
  0.30000000  0.00000000  0.60000000  1.000000e-03
  0.30000000  0.00000000  0.70000000  1.000000e-03
  0.30000000  0.00000000  0.80000000  1.000000e-03
  0.30000000  0.00000000  0.90000000  1.000000e-03
  0.30000000  0.10000000  0.00000000  1.000000e-03
  0.30000000  0.10000000  0.10000000  1.000000e-03
  0.30000000  0.10000000  0.20000000  1.000000e-03
  0.30000000  0.10000000  0.30000000  1.000000e-03
  0.30000000  0.10000000  0.40000000  1.000000e-03
  0.30000000  0.10000000  0.50000000  1.000000e-03
  0.30000000  0.10000000  0.60000000  1.000000e-03
  0.30000000  0.10000000  0.70000000  1.000000e-03
  0.30000000  0.10000000  0.80000000  1.000000e-03
  0.30000000  0.10000000  0.90000000  1.000000e-03
  0.30000000  0.20000000  0.00000000  1.000000e-03
  0.30000000  0.20000000  0.10000000  1.000000e-03
  0.30000000  0.20000000  0.20000000  1.000000e-03
  0.30000000  0.20000000  0.30000000  1.000000e-03
  0.30000000  0.20000000  0.40000000  1.000000e-03
  0.30000000  0.20000000  0.50000000  1.000000e-03
  0.30000000  0.20000000  0.60000000  1.000000e-03
  0.30000000  0.20000000  0.70000000  1.000000e-03
  0.30000000  0.20000000  0.80000000  1.000000e-03
  0.30000000  0.20000000  0.90000000  1.000000e-03
  0.30000000  0.30000000  0.00000000  1.000000e-03
  0.30000000  0.30000000  0.10000000  1.000000e-03
  0.30000000  0.30000000  0.20000000  1.000000e-03
  0.30000000  0.30000000  0.30000000  1.000000e-03
  0.30000000  0.30000000  0.40000000  1.000000e-03
  0.30000000  0.30000000  0.50000000  1.000000e-03
  0.30000000  0.30000000  0.60000000  1.000000e-03
  0.30000000  0.30000000  0.70000000  1.000000e-03
  0.30000000  0.30000000  0.80000000  1.000000e-03
  0.30000000  0.30000000  0.90000000  1.000000e-03
  0.30000000  0.40000000  0.00000000  1.000000e-03
  0.30000000  0.40000000  0.10000000  1.000000e-03
  0.30000000  0.40000000  0.20000000  1.000000e-03
  0.30000000  0.40000000  0.30000000  1.000000e-03
  0.30000000  0.40000000  0.40000000  1.000000e-03
  0.30000000  0.40000000  0.50000000  1.000000e-03
  0.30000000  0.40000000  0.60000000  1.000000e-03
  0.30000000  0.40000000  0.70000000  1.000000e-03
  0.30000000  0.40000000  0.80000000  1.000000e-03
  0.30000000  0.40000000  0.90000000  1.000000e-03
  0.30000000  0.50000000  0.00000000  1.000000e-03
  0.30000000  0.50000000  0.10000000  1.000000e-03
  0.30000000  0.50000000  0.20000000  1.000000e-03
  0.30000000  0.50000000  0.30000000  1.000000e-03
  0.30000000  0.50000000  0.40000000  1.000000e-03
  0.30000000  0.50000000  0.50000000  1.000000e-03
  0.30000000  0.50000000  0.60000000  1.000000e-03
  0.30000000  0.50000000  0.70000000  1.000000e-03
  0.30000000  0.50000000  0.80000000  1.000000e-03
  0.30000000  0.50000000  0.90000000  1.000000e-03
  0.30000000  0.60000000  0.00000000  1.000000e-03
  0.30000000  0.60000000  0.10000000  1.000000e-03
  0.30000000  0.60000000  0.20000000  1.000000e-03
  0.30000000  0.60000000  0.30000000  1.000000e-03
  0.30000000  0.60000000  0.40000000  1.000000e-03
  0.30000000  0.60000000  0.50000000  1.000000e-03
  0.30000000  0.60000000  0.60000000  1.000000e-03
  0.30000000  0.60000000  0.70000000  1.000000e-03
  0.30000000  0.60000000  0.80000000  1.000000e-03
  0.30000000  0.60000000  0.90000000  1.000000e-03
  0.30000000  0.70000000  0.00000000  1.000000e-03
  0.30000000  0.70000000  0.10000000  1.000000e-03
  0.30000000  0.70000000  0.20000000  1.000000e-03
  0.30000000  0.70000000  0.30000000  1.000000e-03
  0.30000000  0.70000000  0.40000000  1.000000e-03
  0.30000000  0.70000000  0.50000000  1.000000e-03
  0.30000000  0.70000000  0.60000000  1.000000e-03
  0.30000000  0.70000000  0.70000000  1.000000e-03
  0.30000000  0.70000000  0.80000000  1.000000e-03
  0.30000000  0.70000000  0.90000000  1.000000e-03
  0.30000000  0.80000000  0.00000000  1.000000e-03
  0.30000000  0.80000000  0.10000000  1.000000e-03
  0.30000000  0.80000000  0.20000000  1.000000e-03
  0.30000000  0.80000000  0.30000000  1.000000e-03
  0.30000000  0.80000000  0.40000000  1.000000e-03
  0.30000000  0.80000000  0.50000000  1.000000e-03
  0.30000000  0.80000000  0.60000000  1.000000e-03
  0.30000000  0.80000000  0.70000000  1.000000e-03
  0.30000000  0.80000000  0.80000000  1.000000e-03
  0.30000000  0.80000000  0.90000000  1.000000e-03
  0.30000000  0.90000000  0.00000000  1.000000e-03
  0.30000000  0.90000000  0.10000000  1.000000e-03
  0.30000000  0.90000000  0.20000000  1.000000e-03
  0.30000000  0.90000000  0.30000000  1.000000e-03
  0.30000000  0.90000000  0.40000000  1.000000e-03
  0.30000000  0.90000000  0.50000000  1.000000e-03
  0.30000000  0.90000000  0.60000000  1.000000e-03
  0.30000000  0.90000000  0.70000000  1.000000e-03
  0.30000000  0.90000000  0.80000000  1.000000e-03
  0.30000000  0.90000000  0.90000000  1.000000e-03
  0.40000000  0.00000000  0.00000000  1.000000e-03
  0.40000000  0.00000000  0.10000000  1.000000e-03
  0.40000000  0.00000000  0.20000000  1.000000e-03
  0.40000000  0.00000000  0.30000000  1.000000e-03
  0.40000000  0.00000000  0.40000000  1.000000e-03
  0.40000000  0.00000000  0.50000000  1.000000e-03
  0.40000000  0.00000000  0.60000000  1.000000e-03
  0.40000000  0.00000000  0.70000000  1.000000e-03
  0.40000000  0.00000000  0.80000000  1.000000e-03
  0.40000000  0.00000000  0.90000000  1.000000e-03
  0.40000000  0.10000000  0.00000000  1.000000e-03
  0.40000000  0.10000000  0.10000000  1.000000e-03
  0.40000000  0.10000000  0.20000000  1.000000e-03
  0.40000000  0.10000000  0.30000000  1.000000e-03
  0.40000000  0.10000000  0.40000000  1.000000e-03
  0.40000000  0.10000000  0.50000000  1.000000e-03
  0.40000000  0.10000000  0.60000000  1.000000e-03
  0.40000000  0.10000000  0.70000000  1.000000e-03
  0.40000000  0.10000000  0.80000000  1.000000e-03
  0.40000000  0.10000000  0.90000000  1.000000e-03
  0.40000000  0.20000000  0.00000000  1.000000e-03
  0.40000000  0.20000000  0.10000000  1.000000e-03
  0.40000000  0.20000000  0.20000000  1.000000e-03
  0.40000000  0.20000000  0.30000000  1.000000e-03
  0.40000000  0.20000000  0.40000000  1.000000e-03
  0.40000000  0.20000000  0.50000000  1.000000e-03
  0.40000000  0.20000000  0.60000000  1.000000e-03
  0.40000000  0.20000000  0.70000000  1.000000e-03
  0.40000000  0.20000000  0.80000000  1.000000e-03
  0.40000000  0.20000000  0.90000000  1.000000e-03
  0.40000000  0.30000000  0.00000000  1.000000e-03
  0.40000000  0.30000000  0.10000000  1.000000e-03
  0.40000000  0.30000000  0.20000000  1.000000e-03
  0.40000000  0.30000000  0.30000000  1.000000e-03
  0.40000000  0.30000000  0.40000000  1.000000e-03
  0.40000000  0.30000000  0.50000000  1.000000e-03
  0.40000000  0.30000000  0.60000000  1.000000e-03
  0.40000000  0.30000000  0.70000000  1.000000e-03
  0.40000000  0.30000000  0.80000000  1.000000e-03
  0.40000000  0.30000000  0.90000000  1.000000e-03
  0.40000000  0.40000000  0.00000000  1.000000e-03
  0.40000000  0.40000000  0.10000000  1.000000e-03
  0.40000000  0.40000000  0.20000000  1.000000e-03
  0.40000000  0.40000000  0.30000000  1.000000e-03
  0.40000000  0.40000000  0.40000000  1.000000e-03
  0.40000000  0.40000000  0.50000000  1.000000e-03
  0.40000000  0.40000000  0.60000000  1.000000e-03
  0.40000000  0.40000000  0.70000000  1.000000e-03
  0.40000000  0.40000000  0.80000000  1.000000e-03
  0.40000000  0.40000000  0.90000000  1.000000e-03
  0.40000000  0.50000000  0.00000000  1.000000e-03
  0.40000000  0.50000000  0.10000000  1.000000e-03
  0.40000000  0.50000000  0.20000000  1.000000e-03
  0.40000000  0.50000000  0.30000000  1.000000e-03
  0.40000000  0.50000000  0.40000000  1.000000e-03
  0.40000000  0.50000000  0.50000000  1.000000e-03
  0.40000000  0.50000000  0.60000000  1.000000e-03
  0.40000000  0.50000000  0.70000000  1.000000e-03
  0.40000000  0.50000000  0.80000000  1.000000e-03
  0.40000000  0.50000000  0.90000000  1.000000e-03
  0.40000000  0.60000000  0.00000000  1.000000e-03
  0.40000000  0.60000000  0.10000000  1.000000e-03
  0.40000000  0.60000000  0.20000000  1.000000e-03
  0.40000000  0.60000000  0.30000000  1.000000e-03
  0.40000000  0.60000000  0.40000000  1.000000e-03
  0.40000000  0.60000000  0.50000000  1.000000e-03
  0.40000000  0.60000000  0.60000000  1.000000e-03
  0.40000000  0.60000000  0.70000000  1.000000e-03
  0.40000000  0.60000000  0.80000000  1.000000e-03
  0.40000000  0.60000000  0.90000000  1.000000e-03
  0.40000000  0.70000000  0.00000000  1.000000e-03
  0.40000000  0.70000000  0.10000000  1.000000e-03
  0.40000000  0.70000000  0.20000000  1.000000e-03
  0.40000000  0.70000000  0.30000000  1.000000e-03
  0.40000000  0.70000000  0.40000000  1.000000e-03
  0.40000000  0.70000000  0.50000000  1.000000e-03
  0.40000000  0.70000000  0.60000000  1.000000e-03
  0.40000000  0.70000000  0.70000000  1.000000e-03
  0.40000000  0.70000000  0.80000000  1.000000e-03
  0.40000000  0.70000000  0.90000000  1.000000e-03
  0.40000000  0.80000000  0.00000000  1.000000e-03
  0.40000000  0.80000000  0.10000000  1.000000e-03
  0.40000000  0.80000000  0.20000000  1.000000e-03
  0.40000000  0.80000000  0.30000000  1.000000e-03
  0.40000000  0.80000000  0.40000000  1.000000e-03
  0.40000000  0.80000000  0.50000000  1.000000e-03
  0.40000000  0.80000000  0.60000000  1.000000e-03
  0.40000000  0.80000000  0.70000000  1.000000e-03
  0.40000000  0.80000000  0.80000000  1.000000e-03
  0.40000000  0.80000000  0.90000000  1.000000e-03
  0.40000000  0.90000000  0.00000000  1.000000e-03
  0.40000000  0.90000000  0.10000000  1.000000e-03
  0.40000000  0.90000000  0.20000000  1.000000e-03
  0.40000000  0.90000000  0.30000000  1.000000e-03
  0.40000000  0.90000000  0.40000000  1.000000e-03
  0.40000000  0.90000000  0.50000000  1.000000e-03
  0.40000000  0.90000000  0.60000000  1.000000e-03
  0.40000000  0.90000000  0.70000000  1.000000e-03
  0.40000000  0.90000000  0.80000000  1.000000e-03
  0.40000000  0.90000000  0.90000000  1.000000e-03
  0.50000000  0.00000000  0.00000000  1.000000e-03
  0.50000000  0.00000000  0.10000000  1.000000e-03
  0.50000000  0.00000000  0.20000000  1.000000e-03
  0.50000000  0.00000000  0.30000000  1.000000e-03
  0.50000000  0.00000000  0.40000000  1.000000e-03
  0.50000000  0.00000000  0.50000000  1.000000e-03
  0.50000000  0.00000000  0.60000000  1.000000e-03
  0.50000000  0.00000000  0.70000000  1.000000e-03
  0.50000000  0.00000000  0.80000000  1.000000e-03
  0.50000000  0.00000000  0.90000000  1.000000e-03
  0.50000000  0.10000000  0.00000000  1.000000e-03
  0.50000000  0.10000000  0.10000000  1.000000e-03
  0.50000000  0.10000000  0.20000000  1.000000e-03
  0.50000000  0.10000000  0.30000000  1.000000e-03
  0.50000000  0.10000000  0.40000000  1.000000e-03
  0.50000000  0.10000000  0.50000000  1.000000e-03
  0.50000000  0.10000000  0.60000000  1.000000e-03
  0.50000000  0.10000000  0.70000000  1.000000e-03
  0.50000000  0.10000000  0.80000000  1.000000e-03
  0.50000000  0.10000000  0.90000000  1.000000e-03
  0.50000000  0.20000000  0.00000000  1.000000e-03
  0.50000000  0.20000000  0.10000000  1.000000e-03
  0.50000000  0.20000000  0.20000000  1.000000e-03
  0.50000000  0.20000000  0.30000000  1.000000e-03
  0.50000000  0.20000000  0.40000000  1.000000e-03
  0.50000000  0.20000000  0.50000000  1.000000e-03
  0.50000000  0.20000000  0.60000000  1.000000e-03
  0.50000000  0.20000000  0.70000000  1.000000e-03
  0.50000000  0.20000000  0.80000000  1.000000e-03
  0.50000000  0.20000000  0.90000000  1.000000e-03
  0.50000000  0.30000000  0.00000000  1.000000e-03
  0.50000000  0.30000000  0.10000000  1.000000e-03
  0.50000000  0.30000000  0.20000000  1.000000e-03
  0.50000000  0.30000000  0.30000000  1.000000e-03
  0.50000000  0.30000000  0.40000000  1.000000e-03
  0.50000000  0.30000000  0.50000000  1.000000e-03
  0.50000000  0.30000000  0.60000000  1.000000e-03
  0.50000000  0.30000000  0.70000000  1.000000e-03
  0.50000000  0.30000000  0.80000000  1.000000e-03
  0.50000000  0.30000000  0.90000000  1.000000e-03
  0.50000000  0.40000000  0.00000000  1.000000e-03
  0.50000000  0.40000000  0.10000000  1.000000e-03
  0.50000000  0.40000000  0.20000000  1.000000e-03
  0.50000000  0.40000000  0.30000000  1.000000e-03
  0.50000000  0.40000000  0.40000000  1.000000e-03
  0.50000000  0.40000000  0.50000000  1.000000e-03
  0.50000000  0.40000000  0.60000000  1.000000e-03
  0.50000000  0.40000000  0.70000000  1.000000e-03
  0.50000000  0.40000000  0.80000000  1.000000e-03
  0.50000000  0.40000000  0.90000000  1.000000e-03
  0.50000000  0.50000000  0.00000000  1.000000e-03
  0.50000000  0.50000000  0.10000000  1.000000e-03
  0.50000000  0.50000000  0.20000000  1.000000e-03
  0.50000000  0.50000000  0.30000000  1.000000e-03
  0.50000000  0.50000000  0.40000000  1.000000e-03
  0.50000000  0.50000000  0.50000000  1.000000e-03
  0.50000000  0.50000000  0.60000000  1.000000e-03
  0.50000000  0.50000000  0.70000000  1.000000e-03
  0.50000000  0.50000000  0.80000000  1.000000e-03
  0.50000000  0.50000000  0.90000000  1.000000e-03
  0.50000000  0.60000000  0.00000000  1.000000e-03
  0.50000000  0.60000000  0.10000000  1.000000e-03
  0.50000000  0.60000000  0.20000000  1.000000e-03
  0.50000000  0.60000000  0.30000000  1.000000e-03
  0.50000000  0.60000000  0.40000000  1.000000e-03